benchmarks_vrp/CMT11/fixed_c_size/CMT11_7.vrp
NAME: CMT11_7
TYPE: CVRP
COMMENT: 1042.11 - Cluster Nr.7
DIMENSION: 9
CAPACITY: 200
EDGE_WEIGHT_TYPE: EUC_2D
NODE_COORD_TYPE: TWOD_COORDS
NODE_COORD_SECTION: 
8 10 45
4 5 50
3 11 42
5 10 35
2 13 40
7 5 40
6 15 42
9 14 40
1 10 40
DEPOT_SECTION: 
8
-1
DEMAND_SECTION: 
4 13
5 7
9 11
3 4
8 0
6 21
2 7
1 12
7 20
EOF
