benchmarks_vrp/CMT11/fixed_c_size/CMT11_7.tour
NAME: CMT11_7 solution
TYPE: TOUR
TOUR_SECTION:
8 3 6 9 2 1 5 7 4 -1
-1
EOF